column=9;
row=9;
left=[4, 0, 1, 4, 2, 0, 0, 0, 5];
right=[2, 3, 0, 0, 0, 0, 0, 4, 2];
top=[0, 0, 0, 3, 0, 0, 0, 1, 0];
bottom=[4, 2, 4, 0, 1, 4, 0, 0, 0];
Board=[|0,0,0,0,0,8,0,0,0|0,0,0,0,0,0,0,0,0|0,0,0,0,0,3,2,0,0|0,0,2,1,0,0,0,0,4|4,1,0,0,3,0,6,0,0|0,5,8,0,7,4,0,1,0|8,3,1,0,0,7,4,0,0|0,0,0,3,0,0,0,6,0|2,4,0,0,0,0,0,0,7|]